s td 144 35 226
b 1 12 54 150
b 2 15 22 47
b 3 17 83 178
b 4 21 69 142
b 5 24 149 194
b 6 28 60 201
b 7 30 97 223
b 8 31 43 142
b 9 36 150 180
b 10 33 39 116
b 11 5 44 97
b 12 50 97 224
b 13 52 94 200
b 14 58 95 209
b 15 61 91 199
b 16 48 62 91
b 17 63 184 209
b 18 38 64 194
b 19 51 68 142
b 20 71 81 209
b 21 75 194 226
b 22 77 92 170
b 23 78 128 200
b 24 86 215 219
b 25 87 157 209
b 26 98 112 194
b 27 33 101 169
b 28 85 102 150
b 29 91 107 212
b 30 65 73 111
b 31 114 120 221
b 32 33 45 115
b 33 23 117 142
b 34 65 119 166
b 35 8 122 150
b 36 13 125 202
b 37 109 130 168
b 38 120 131 160
b 39 4 81 132
b 40 120 133 135
b 41 33 145 175
b 42 90 142 147
b 43 65 152 187
b 44 97 161 206
b 45 65 162 185
b 46 72 84 167
b 47 79 177 207
b 48 91 181 225
b 49 109 176 189
b 50 19 193 200
b 51 150 196 204
b 52 76 178 205
b 53 120 164 218
b 54 27 200 220
b 55 8 150 187
b 56 13 202 217
b 57 19 48 200
b 58 27 200 226
b 59 38 126 194
b 60 33 45 74
b 61 51 142 206
b 62 76 103 178
b 63 83 103 178
b 64 79 155 207
b 65 4 81 209
b 66 72 85 150
b 67 90 142 201
b 68 57 65 73 148
b 69 157 164 209
b 70 120 164 209
b 71 65 116 166
b 72 16 109 168
b 73 16 109 176
b 74 135 150 180
b 75 184 191 209
b 76 65 73 150 187
b 77 5 97 142 206
b 78 5 97 163 210
b 79 116 120 221
b 80 48 97 224
b 81 59 91 225
b 82 194 200 226
b 83 23 91 142 159
b 84 7 33 35 204
b 85 41 73 178 217
b 86 57 65 72 73
b 87 120 135 150 183
b 88 5 109 140 155
b 89 1 3 6 9 20 22 25 40 43 46 53 65 67 70 74 82 88 99 106 110 120 136 139 150 153 173 174 182 188 191 192 195 202 209 222
b 90 2 11 18 29 34 42 43 59 60 66 93 97 104 105 121 126 127 134 138 142 146 151 154 156 158 170 171 194 200 203 207 209 211 213 214
b 91 2 4 11 18 29 34 42 59 60 66 93 97 104 105 121 126 127 134 138 142 146 151 154 156 158 170 171 194 200 203 207 209 211 213 214
b 92 2 4 11 18 29 34 42 59 60 66 93 97 104 105 118 121 126 127 134 138 142 146 151 154 156 170 171 194 200 203 207 211 213 214
b 93 2 4 11 18 29 34 42 59 60 66 93 97 104 105 109 118 121 126 127 134 138 142 146 154 156 170 171 194 200 203 207 211 213 214
b 94 5 60 97 109 138 142 207
b 95 5 109 155 207
b 96 5 60 97 138 142 201
b 97 2 4 11 16 18 29 34 59 60 66 97 104 105 109 118 126 127 134 138 142 146 154 156 170 171 194 200 203 207 211 213
b 98 2 4 11 16 18 29 34 56 59 60 97 104 105 109 118 126 127 134 138 142 146 156 170 171 194 200 207 211 213
b 99 4 11 29 34 55 56 59 60 97 104 105 109 118 126 127 142 146 170 171 194 200 207 213
b 100 11 29 34 48 55 56 59 97 104 118 126 127 142 146 170 171 194 200 207 213
b 101 11 29 34 48 55 56 59 91 104 118 126 127 142 146 170 171 194 207 213
b 102 91 118 142 159
b 103 4 11 18 29 42 49 60 97 104 118 121 134 138 142 151 170 203 207 211
b 104 2 11 18 29 34 42 43 59 60 66 93 97 104 105 121 126 127 134 138 142 146 151 154 156 158 170 171 172 194 200 203 207 211 213 214
b 105 2 11 18 29 34 42 59 60 66 93 97 104 105 121 126 127 134 138 142 146 151 154 156 158 165 170 171 172 194 200 203 207 211 213 214
b 106 2 11 18 26 29 34 42 59 60 66 97 104 105 121 126 127 134 138 142 146 151 154 156 158 165 170 171 172 194 203 207 211 213 214
b 107 2 11 18 26 29 34 42 59 60 66 97 104 105 121 126 127 134 138 141 146 151 154 156 158 165 170 171 172 194 203 207 211 213 214
b 108 2 11 18 26 29 34 42 59 60 66 97 104 105 121 126 127 134 138 141 146 154 156 158 165 170 171 172 194 197 203 207 213 214
b 109 2 10 29 60 66 104 105 127 141 146 154 170 194 197 214
b 110 11 18 26 29 32 34 42 59 66 97 104 105 121 126 127 134 138 141 146 154 156 158 165 170 171 172 194 197 203 207 213
b 111 11 18 26 29 32 34 42 59 104 105 121 126 127 134 138 141 156 158 165 170 172 179 194 197 203 207 213
b 112 11 18 26 29 32 34 42 59 104 105 108 121 126 127 134 138 141 156 158 165 172 179 194 203 207 213
b 113 18 26 29 32 42 59 105 108 113 121 126 127 134 138 158 165 172 179 203 207
b 114 18 26 29 32 42 59 105 108 113 121 127 134 165 172 179 198 203 207
b 115 18 26 29 59 105 108 121 124 127 134 179 198
b 116 59 80 134 141 151 194 207 213 214
b 117 2 11 18 26 29 59 97 126 142 143 146 151 154 170 213
b 118 43 128 172 200
b 119 1 3 6 9 20 22 25 40 46 53 65 67 70 74 88 99 106 110 120 136 139 150 153 173 174 178 182 188 191 192 195 202 209 222
b 120 1 3 6 9 20 22 25 40 46 53 65 67 70 74 84 88 99 106 110 120 136 139 150 153 173 174 178 182 188 191 192 202 209 222
b 121 1 3 6 9 20 22 25 33 40 46 65 67 70 74 84 88 99 106 110 120 136 139 150 153 173 174 178 182 188 191 192 202 209 222
b 122 1 3 6 7 9 20 22 25 33 40 46 65 67 84 88 99 106 110 120 136 139 150 153 173 174 178 182 188 202 209 222
b 123 1 6 7 9 20 22 25 33 40 46 65 67 84 88 99 110 120 136 137 139 150 153 173 178 182 188 202 209 222
b 124 14 22 25 33 40 46 65 67 84 88 99 110 120 137 139 150 153 178 202 209
b 125 14 25 40 46 84 88 99 110 120 137 139 178 219
b 126 7 33 150 204
b 127 1 3 6 9 25 33 40 46 70 74 84 88 103 120 139 150 153 173 174 178 182 191 192 202 209
b 128 1 6 9 25 33 40 46 70 74 103 120 139 150 182 190 209
b 129 33 65 116 120
b 130 40 65 72 84 150 178 202
b 131 65 72 73 150 178 202
b 132 73 178 202 217
b 133 1 3 6 9 20 25 40 43 46 53 65 67 70 74 82 88 89 99 106 110 120 136 139 150 153 173 174 182 188 191 192 195 202 209 222
b 134 1 3 6 9 20 25 40 43 53 65 67 70 74 82 88 89 99 100 106 110 120 136 139 150 153 173 174 182 188 191 192 195 202 209 222
b 135 1 3 9 37 40 53 65 74 88 89 99 100 106 136 173 182 188 202 209
b 136 9 37 74 99 106 129 136 202 209
b 137 1 6 9 20 25 40 43 53 65 67 70 74 82 88 89 99 100 106 110 120 136 150 153 173 174 182 188 191 192 195 202 208 209 222
b 138 6 9 20 25 40 43 65 67 70 74 82 88 89 99 100 106 110 120 123 136 150 173 174 182 188 191 192 195 202 208 222
b 139 6 9 20 25 40 43 65 67 74 82 89 96 99 100 106 110 120 123 150 173 188 191 192 195 202 222
b 140 6 9 20 25 40 65 67 82 89 96 99 100 106 110 120 123 144 150 173 188 191 192 195 202 222
b 141 9 20 25 40 65 82 89 96 99 100 106 120 123 144 150 173 183 188 191 195 202 222
b 142 9 20 82 89 96 100 123 144 173 183 188 202 216 222
b 143 3 6 22 65 70 74 82 99 136 139 150 153 186 188 191
b 144 5 97 163 201
1 89
2 89
3 63
4 90
5 90
6 96
7 90
8 90
9 74
10 129
11 94
12 80
13 90
14 89
15 101
16 101
17 75
18 59
19 61
20 65
21 82
22 90
23 118
24 125
25 69
26 90
27 121
28 66
29 101
30 131
31 79
32 60
33 83
34 71
35 55
36 56
37 72
38 89
39 65
40 87
41 121
42 67
43 76
44 77
45 89
46 130
47 64
48 81
49 73
50 57
51 126
52 62
53 70
54 58
55 76
56 132
57 100
58 82
59 90
60 121
61 77
62 127
63 127
64 95
65 91
66 130
67 96
68 86
69 70
70 89
71 129
72 97
73 97
74 87
75 89
76 131
77 94
78 144
79 129
80 100
81 101
82 90
83 102
84 126
85 132
86 131
87 141
88 95
89 90
89 119
89 133
89 143
90 91
90 104
91 92
92 93
92 103
93 94
93 97
94 95
94 96
96 144
97 98
98 99
99 100
100 101
101 102
104 105
104 118
105 106
106 107
106 117
107 108
107 116
108 109
108 110
110 111
111 112
112 113
113 114
114 115
119 120
120 121
120 130
121 122
121 127
121 129
122 123
122 126
123 124
124 125
127 128
130 131
131 132
133 134
134 135
134 137
135 136
137 138
138 139
139 140
140 141
141 142
